# Cost: 242

# Tail Head Net
33 13 1
53 33 1
73 53 1
93 73 1
113 93 1
133 113 1
153 133 1
173 153 1
193 173 1
194 193 1
214 194 1
234 214 1
254 234 1
255 254 1
256 255 1
276 256 1
276 296 1
277 276 1
278 277 1
279 278 1
280 279 1
296 316 1
316 336 1
336 356 1
356 376 1
376 396 1
391 390 1
392 391 1
393 392 1
394 393 1
395 394 1
396 395 1
396 397 1
16 17 2
16 36 2
17 18 2
36 56 2
56 76 2
76 96 2
96 116 2
116 136 2
136 156 2
142 141 2
156 157 2
156 556 2
157 158 2
158 159 2
159 179 2
179 180 2
180 200 2
200 220 2
542 142 2
543 542 2
544 543 2
545 544 2
546 545 2
547 546 2
548 547 2
549 548 2
550 549 2
551 550 2
552 551 2
553 552 2
554 553 2
555 554 2
556 555 2
79 80 3
99 79 3
186 586 3
201 202 3
202 203 3
203 204 3
204 205 3
205 206 3
206 186 3
221 201 3
241 221 3
261 241 3
281 261 3
301 281 3
321 301 3
341 321 3
499 99 3
519 499 3
538 539 3
539 519 3
558 538 3
570 571 3
571 572 3
572 573 3
573 574 3
574 575 3
575 576 3
576 577 3
577 578 3
578 558 3
586 587 3
587 588 3
588 589 3
589 590 3
590 570 3
385 384 4
9 29 5
29 49 5
49 69 5
69 89 5
89 109 5
109 110 5
109 129 5
110 510 5
118 119 5
119 120 5
129 149 5
149 169 5
169 189 5
189 209 5
209 229 5
229 249 5
249 269 5
269 289 5
289 309 5
309 329 5
329 349 5
349 369 5
369 389 5
510 511 5
511 512 5
512 513 5
513 514 5
514 515 5
515 516 5
516 517 5
517 518 5
518 118 5
3 4 6
4 5 6
5 6 6
6 26 6
26 27 6
27 28 6
28 48 6
48 68 6
68 88 6
88 108 6
108 128 6
128 148 6
148 168 6
168 188 6
188 208 6
208 228 6
228 248 6
248 268 6
268 288 6
288 308 6
308 328 6
328 348 6
348 368 6
368 388 6
388 788 6
788 789 6
789 790 6
790 791 6
791 792 6
792 793 6
793 794 6
794 795 6
795 796 6
796 797 6
797 798 6
798 398 6
14 414 7
407 7 7
408 407 7
409 408 7
410 409 7
411 410 7
412 411 7
413 412 7
414 413 7
414 415 7
415 416 7
416 417 7
417 418 7
418 419 7
419 439 7
439 440 7
440 460 7
460 480 7
480 500 7
500 520 7
520 540 7
540 560 7
560 580 7
580 600 7
600 620 7
620 640 7
640 660 7
660 680 7
680 700 7
700 720 7
720 740 7
740 340 7
38 438 8
39 38 8
40 39 8
47 67 8
67 87 8
87 107 8
107 127 8
127 147 8
147 167 8
167 187 8
187 207 8
207 227 8
227 247 8
247 267 8
267 287 8
287 307 8
307 327 8
327 347 8
347 367 8
367 387 8
402 2 8
422 402 8
423 422 8
424 423 8
425 424 8
426 425 8
427 426 8
427 447 8
428 427 8
429 428 8
430 429 8
431 430 8
432 431 8
433 432 8
434 433 8
435 434 8
436 435 8
437 436 8
438 437 8
447 47 8
